 vasp.6.3.1 04May22 (build Nov  5 2022 14:28:48) complex
 executed on              LinuxNV date 2025.01.04  03:45:15

 INCAR:
   ALGO = All
   EDIFF = 1e-05
   EDIFFG = -0.01
   ENCUT = 520
   IBRION = 2
   ICHARG = 2
   ISIF = 2
   ISMEAR = 0
   ISPIN = 2
   ISYM = 0
   LMIXTAU = True
   LORBIT = 11
   LPLANE = True
   LREAL = Auto
   LWAVE = False
   MAGMOM = 48*0.06 99*0.06 3*0.06
   NCORE = 48
   NELM = 200
   NELMIN = 4
   NSIM = 4
   NSW = 200
   PREC = Accurate
   SIGMA = 0.05
   IVDW = 11

 POTCAR:    PAW_PBE W_pv 06Nov2007
 POTCAR:    PAW_PBE Se 06Sep2000
 POTCAR:    PAW_PBE O 08Apr2002
 POTCAR:    PAW_PBE C 08Apr2002
 POTCAR:    PAW_PBE W_pv 06Nov2007
   VRHFIN =W : 5p6s5d

   TITEL  = PAW_PBE W_pv 06Nov2007
   POMASS =  183.850; ZVAL   =   12.000    mass and valenz
   ENMAX  =  223.057; ENMIN  =  167.293 eV

   TITEL  = PAW_PBE Se 06Sep2000
   POMASS =   78.960; ZVAL   =    6.000    mass and valenz
   ENMAX  =  211.555; ENMIN  =  158.666 eV

   TITEL  = PAW_PBE O 08Apr2002
   POMASS =   16.000; ZVAL   =    6.000    mass and valenz
   ENMAX  =  400.000; ENMIN  =  300.000 eV

   TITEL  = PAW_PBE C 08Apr2002
   POMASS =   12.011; ZVAL   =    4.000    mass and valenz
   ENMAX  =  400.000; ENMIN  =  300.000 eV

 Optimization of the real space projectors (new method)

 maximal supplied QI-value         = 15.12
 optimisation between [QCUT,QGAM] = [ 11.64, 23.28] = [ 37.95,151.78] Ry
 Optimized for a Real-space Cutoff    1.53 Angstroem

   l    n(q)    QCUT    max X(q) W(low)/X(q) W(high)/X(q)  e(spline)
   1     10    11.641     4.278    0.12E-04    0.15E-04    0.63E-07
   1     10    11.641     5.278    0.15E-04    0.52E-04    0.18E-06
   2     10    11.641    67.938    0.89E-04    0.14E-03    0.15E-06
   2     10    11.641    59.529    0.87E-04    0.14E-03    0.15E-06
   0     11    11.641   103.405    0.25E-04    0.27E-04    0.86E-07
   0     11    11.641    56.752    0.20E-04    0.25E-04    0.80E-07
 Optimization of the real space projectors (new method)

[...]

   l    n(q)    QCUT    max X(q) W(low)/X(q) W(high)/X(q)  e(spline)
   0      8    11.635    20.381    0.10E-03    0.33E-03    0.24E-06
   0      8    11.635    15.268    0.11E-03    0.35E-03    0.26E-06
   1      7    11.635     5.964    0.24E-03    0.31E-03    0.30E-06
   1      7    11.635     5.382    0.22E-03    0.25E-03    0.26E-06
 Optimization of the real space projectors (new method)

 maximal supplied QI-value         = 25.13
 optimisation between [QCUT,QGAM] = [ 11.56, 23.12] = [ 37.43,149.72] Ry
 Optimized for a Real-space Cutoff    1.04 Angstroem

   l    n(q)    QCUT    max X(q) W(low)/X(q) W(high)/X(q)  e(spline)
   0      7    11.561   115.676    0.20E-03    0.60E-03    0.21E-06
   0      7    11.561    87.132    0.20E-03    0.59E-03    0.21E-06
   1      7    11.561     4.429    0.23E-03    0.35E-03    0.15E-06
   1      7    11.561     2.733    0.18E-03    0.25E-03    0.12E-06
  PAW_PBE W_pv 06Nov2007                :
  PAW_PBE Se 06Sep2000                  :
  PAW_PBE O 08Apr2002                   :
  PAW_PBE C 08Apr2002                   :

 POSCAR: W48 Se99
  positions in direct lattice
  velocities in cartesian coordinates
 exchange correlation table for  LEXCH =        8
   RHO(1)=    0.500       N(1)  =     2000
   RHO(2)=  100.500       N(2)  =     4000

 ion  position               nearest neighbor table
   1  0.282  0.042  0.497- 107 2.45  49 2.45  93 2.46  69 2.52 116 2.52  37 3.26  13 3.28  28 3.38

   2  0.287  0.273  0.486- 149 2.18 104 2.45 117 2.46  70 2.48  50 2.63  13 2.78  25 3.05  38 3.31

   3  0.282  0.545  0.507- 105 2.38  51 2.44  71 2.49  94 2.53 118 2.54  15 3.21  39 3.21  26 3.37

   4  0.286  0.783  0.498- 106 2.43  72 2.49 119 2.50  95 2.53  52 2.58  15 3.04  27 3.14  16 3.22
                            40 3.26
   5  0.456  0.036  0.499-  53 2.54  96 2.54 120 2.54  73 2.54  64 2.54 111 2.54  37 3.26  17 3.27
                            41 3.28  32 3.28  20 3.29  28 3.32
   6  0.455  0.286  0.498-  61 2.54 108 2.54  74 2.54 121 2.54  97 2.55  54 2.55  25 3.27  18 3.27
                            17 3.29  42 3.30  38 3.31  29 3.32
   7  0.454  0.536  0.499-  98 2.54  55 2.54  75 2.54 122 2.54 109 2.55  62 2.55  39 3.27  19 3.27
                            30 3.29  43 3.29  18 3.29  26 3.33
   8  0.456  0.786  0.500-  63 2.54  56 2.54 110 2.54  99 2.54 123 2.54  76 2.54  20 3.26  40 3.27
                            44 3.30  19 3.30  27 3.30  31 3.31
   9  0.629  0.036  0.502-  68 2.54  57 2.54 100 2.54 115 2.54  77 2.59 124 2.60  45 3.25  36 3.25
                            24 3.27  21 3.27  41 3.30  32 3.30
  10  0.628  0.286  0.501-  65 2.53 112 2.53  58 2.53 101 2.54  78 2.56 125 2.56  29 3.26  42 3.28
                            22 3.29  21 3.30  46 3.45  33 3.46
  11  0.628  0.536  0.501-  59 2.54  66 2.54 102 2.54 113 2.54  79 2.59 126 2.60  34 3.26  47 3.26
                            22 3.27  23 3.27  43 3.29  30 3.30
  12  0.628  0.786  0.502- 103 2.53  60 2.53  67 2.53 114 2.54  80 2.56 127 2.56  44 3.27  31 3.27
                            24 3.29  23 3.30  35 3.45  48 3.46
  13  0.288  0.167  0.495- 104 2.42  81 2.48 128 2.48  93 2.60  49 2.61   2 2.78  25 3.07  37 3.25
                             1 3.28
  14  0.282  0.406  0.497- 150 2.06 148 2.33  50 2.43 129 2.50  82 2.51 105 2.52  38 3.22  26 3.30

  15  0.286  0.667  0.498- 106 2.44 130 2.50  83 2.50  94 2.51  51 2.59   4 3.04  27 3.13   3 3.21
                            39 3.27
  16  0.282  0.906  0.499- 107 2.44  52 2.46  95 2.50  84 2.51 131 2.52   4 3.22  40 3.26  28 3.34

  17  0.456  0.160  0.498- 108 2.54 132 2.54  85 2.54  61 2.54  53 2.54  96 2.55  37 3.26   5 3.27
                            41 3.27  25 3.28   6 3.29  29 3.30
  18  0.454  0.410  0.498-  97 2.54  54 2.54  62 2.54  86 2.55 133 2.55 109 2.55   6 3.27   7 3.29
                            30 3.30  38 3.31  42 3.32  26 3.34
  19  0.455  0.661  0.500- 110 2.54  63 2.54 134 2.54  87 2.54  55 2.54  98 2.55  43 3.27   7 3.27
                            39 3.28   8 3.30  27 3.30  31 3.31
  20  0.456  0.911  0.500-  99 2.54  56 2.54  64 2.54 111 2.54  88 2.54 135 2.54   8 3.26  40 3.27
                            32 3.29   5 3.29  44 3.30  28 3.31
  21  0.628  0.161  0.501- 100 2.54  57 2.54 112 2.54  65 2.55 136 2.59  89 2.59  33 3.22   9 3.27
                            29 3.28  10 3.30  41 3.30  45 3.34
  22  0.628  0.411  0.501- 113 2.54  66 2.54 101 2.54  58 2.54 137 2.59  90 2.59  46 3.22  11 3.27
                            42 3.28  10 3.29  30 3.31  34 3.33
  23  0.628  0.660  0.501- 102 2.54 114 2.54  59 2.54  67 2.54 138 2.58  91 2.59  35 3.22  11 3.27
                            31 3.27  12 3.30  43 3.31  47 3.33
  24  0.629  0.911  0.502- 115 2.54  68 2.54 103 2.54  60 2.54 139 2.58  92 2.59  48 3.22   9 3.27
                            44 3.28  12 3.29  32 3.30  36 3.33
  25  0.370  0.223  0.495- 108 2.54  61 2.55 128 2.55  70 2.56  81 2.56 117 2.57   2 3.05  13 3.07
                            37 3.26   6 3.27  38 3.28  17 3.28
  26  0.366  0.473  0.498-  62 2.55 118 2.55 109 2.55  71 2.55 129 2.56  82 2.56  39 3.30  14 3.30
                            38 3.31   7 3.33  18 3.34   3 3.37
  27  0.369  0.724  0.499- 119 2.54 130 2.54  63 2.55 110 2.55  83 2.55  72 2.55  15 3.13   4 3.14
                            40 3.26  39 3.28   8 3.30  19 3.30
  28  0.368  0.973  0.498-  84 2.54 116 2.54  69 2.54 131 2.54 111 2.54  64 2.55  40 3.28  37 3.29
                            20 3.31   5 3.32  16 3.34   1 3.38
  29  0.542  0.223  0.500- 132 2.54  85 2.54  74 2.55 112 2.55 121 2.55  65 2.55  10 3.26  21 3.28
                            41 3.28  42 3.30  17 3.30   6 3.32
  30  0.541  0.473  0.500-  75 2.54 133 2.54 113 2.54 122 2.54  66 2.54  86 2.54  42 3.27  43 3.27
                             7 3.29  18 3.30  11 3.30  22 3.31
  31  0.542  0.723  0.500- 123 2.54  87 2.54  76 2.54 134 2.54 114 2.55  67 2.55  12 3.27  23 3.27
                            43 3.28  44 3.30   8 3.31  19 3.31
  32  0.542  0.973  0.501- 115 2.54  68 2.54 120 2.54  88 2.54 135 2.54  73 2.54  41 3.27  44 3.28
                             5 3.28  20 3.29   9 3.30  24 3.30
  33  0.716  0.215  0.502- 146 2.44  89 2.48 136 2.49 145 2.56 125 2.63  78 2.63  45 3.14  21 3.22
                            10 3.46
  34  0.714  0.477  0.502- 143 2.50 126 2.51  79 2.53 144 2.58  90 2.58 137 2.60  47 3.11  46 3.13
                            11 3.26  22 3.33
  35  0.716  0.714  0.502- 142 2.44  91 2.48 138 2.49 141 2.57 127 2.63  80 2.63  47 3.13  23 3.22
                            12 3.45
  36  0.715  0.977  0.503- 147 2.50 124 2.51  77 2.53 140 2.58  92 2.58 139 2.60  45 3.11  48 3.14
                             9 3.25  24 3.33
  37  0.370  0.098  0.497-  53 2.53  96 2.53  81 2.56 128 2.57  69 2.57 116 2.57  13 3.25  25 3.26
                             1 3.26  17 3.26   5 3.26  28 3.29
  38  0.367  0.347  0.495-  97 2.55  54 2.55 129 2.55 117 2.58  70 2.58  82 2.60  14 3.22  25 3.28
                            18 3.31   2 3.31  26 3.31   6 3.31
  39  0.369  0.599  0.499-  55 2.54  98 2.54 130 2.56 118 2.57  83 2.57  71 2.57   3 3.21   7 3.27
                            15 3.27  19 3.28  27 3.28  26 3.30
  40  0.370  0.848  0.499-  99 2.54  56 2.54 119 2.56 131 2.56  72 2.57  84 2.57  16 3.26   4 3.26
                            27 3.26  20 3.27   8 3.27  28 3.28
  41  0.542  0.098  0.500- 100 2.54  57 2.54 132 2.54  85 2.54 120 2.54  73 2.54  32 3.27  17 3.27
                             5 3.28  29 3.28   9 3.30  21 3.30
  42  0.542  0.349  0.500- 121 2.54  74 2.54  86 2.54 133 2.54 101 2.55  58 2.55  30 3.27  10 3.28
                            22 3.28  29 3.30   6 3.30  18 3.32
  43  0.541  0.598  0.500- 134 2.54  87 2.54  59 2.54 102 2.54 122 2.54  75 2.54  19 3.27  30 3.27
                            31 3.28   7 3.29  11 3.29  23 3.31
  44  0.543  0.849  0.501- 135 2.54  76 2.54  88 2.54 123 2.54 103 2.55  60 2.55  12 3.27  32 3.28
                            24 3.28  31 3.30   8 3.30  20 3.30
  45  0.715  0.095  0.503- 147 2.50 124 2.51  77 2.53 146 2.58  89 2.59 136 2.60  36 3.11  33 3.14
                             9 3.25  21 3.34
  46  0.716  0.357  0.502- 144 2.44  90 2.48 137 2.49 145 2.56 125 2.63  78 2.63  34 3.13  22 3.22
                            10 3.45
  47  0.715  0.595  0.502- 143 2.50 126 2.51  79 2.53  91 2.58 142 2.58 138 2.60  34 3.11  35 3.13
                            11 3.26  23 3.33
  48  0.716  0.857  0.502- 140 2.44  92 2.48 139 2.49 141 2.56 127 2.63  80 2.63  36 3.14  24 3.22
                            12 3.46
  49  0.254  0.103  0.586-   1 2.45  13 2.61
  50  0.250  0.340  0.571-  14 2.43   2 2.63
  51  0.254  0.606  0.596-   3 2.44  15 2.59
  52  0.254  0.846  0.590-  16 2.46   4 2.58
  53  0.426  0.098  0.592-  37 2.53   5 2.54  17 2.54
  54  0.424  0.348  0.590-  18 2.54  38 2.55   6 2.55
  55  0.426  0.598  0.593-  39 2.54   7 2.54  19 2.54
  56  0.427  0.849  0.593-  20 2.54  40 2.54   8 2.54
  57  0.599  0.098  0.594-  41 2.54   9 2.54  21 2.54
  58  0.599  0.349  0.594-  10 2.53  22 2.54  42 2.55
  59  0.598  0.598  0.594-  11 2.54  43 2.54  23 2.54
  60  0.600  0.848  0.595-  12 2.53  24 2.54  44 2.55
[...]
   0.136E+04 -.198E+03 -.171E+03   -.136E+04 0.196E+03 0.172E+03   -.654E+00 0.248E+01 -.149E+01
   0.148E+04 -.528E+02 0.244E+02   -.148E+04 0.522E+02 -.245E+02   0.516E+00 0.633E+00 0.108E+00
   0.150E+04 -.113E+03 -.633E+01   -.150E+04 0.111E+03 0.637E+01   0.378E+00 0.189E+01 -.551E-01
   0.226E+03 0.640E+01 -.367E+01   -.226E+03 -.646E+01 0.368E+01   0.942E-01 0.537E-01 -.759E-02
   0.243E+03 -.117E+02 -.178E+00   -.243E+03 0.116E+02 0.178E+00   0.292E-01 0.317E-01 0.715E-03
   0.241E+03 -.730E+01 0.221E+01   -.241E+03 0.721E+01 -.221E+01   0.422E-01 0.829E-01 -.206E-02
   0.251E+03 -.416E+01 -.900E+00   -.251E+03 0.416E+01 0.899E+00   0.982E-01 0.288E-02 0.276E-02
   -.787E+03 -.199E+02 -.685E+01   0.786E+03 0.202E+02 0.679E+01   0.560E+00 -.367E+00 0.615E-01
   -.781E+03 0.180E+02 -.796E+00   0.781E+03 -.183E+02 0.708E+00   0.532E+00 0.346E+00 0.921E-01
   -.782E+03 -.198E+02 -.125E+01   0.782E+03 0.201E+02 0.117E+01   0.531E+00 -.334E+00 0.893E-01
   -.785E+03 0.214E+02 -.656E+01   0.785E+03 -.218E+02 0.650E+01   0.554E+00 0.358E+00 0.647E-01
   0.705E+03 0.139E+02 -.223E+01   -.705E+03 -.139E+02 0.221E+01   0.403E+00 0.719E-01 0.113E-01
   0.803E+03 -.237E+02 0.103E+01   -.803E+03 0.237E+02 -.971E+00   0.774E-01 -.339E-01 -.641E-01
   0.765E+03 -.669E+01 -.207E-01   -.765E+03 0.670E+01 -.443E-01   0.176E+00 -.255E-02 0.694E-01
   0.833E+03 0.614E+01 0.410E+01   -.833E+03 -.601E+01 -.409E+01   -.532E-03 -.118E+00 -.715E-02
   -.258E+03 -.633E+01 -.498E+01   0.258E+03 0.636E+01 0.498E+01   0.105E+00 -.317E-01 -.653E-02
   -.237E+03 0.170E+01 0.648E+00   0.237E+03 -.174E+01 -.646E+00   0.222E+00 0.426E-01 0.115E-02
   -.251E+03 -.516E+01 -.100E+01   0.251E+03 0.518E+01 0.997E+00   0.840E-01 -.331E-01 0.392E-02
   -.241E+03 0.765E+01 -.528E+01   0.241E+03 -.767E+01 0.529E+01   0.247E+00 0.215E-01 -.643E-02
   -.148E+04 -.833E+02 -.104E+02   0.148E+04 0.841E+02 0.103E+02   -.777E+00 -.695E+00 0.665E-01
   -.148E+04 0.265E+02 -.499E+01   0.148E+04 -.264E+02 0.505E+01   -.477E+00 -.132E+00 -.641E-01
   -.148E+04 -.821E+02 -.814E+01   0.148E+04 0.829E+02 0.804E+01   -.784E+00 -.649E+00 0.970E-01
   -.148E+04 0.313E+02 -.101E+02   0.148E+04 -.311E+02 0.101E+02   -.488E+00 -.181E+00 -.586E-01
   0.774E+03 0.523E+02 0.288E+01   -.774E+03 -.522E+02 -.289E+01   0.214E-01 -.942E-01 0.760E-02
   0.733E+03 -.270E+02 -.140E+02   -.733E+03 0.270E+02 0.140E+02   0.143E+00 -.135E-01 -.471E-01
   0.772E+03 0.690E+01 0.413E+01   -.772E+03 -.703E+01 -.419E+01   0.933E-02 0.125E+00 0.612E-01
   0.780E+03 -.231E+02 0.223E+01   -.780E+03 0.232E+02 -.228E+01   -.111E+00 -.441E-01 0.467E-01
   -.248E+03 0.144E+01 -.579E+01   0.247E+03 -.142E+01 0.580E+01   0.265E+00 -.271E-01 -.536E-02
   -.253E+03 -.537E+00 -.202E+01   0.253E+03 0.522E+00 0.202E+01   0.977E-01 0.236E-01 0.151E-02
   -.241E+03 -.289E+01 0.814E+00   0.240E+03 0.289E+01 -.816E+00   0.231E+00 -.267E-02 0.132E-02
   -.252E+03 0.438E+01 -.356E+01   0.252E+03 -.439E+01 0.356E+01   0.101E+00 0.124E-01 -.904E-03
   -.148E+04 -.301E+02 -.105E+02   0.148E+04 0.300E+02 0.106E+02   -.487E+00 0.173E+00 -.612E-01
   -.148E+04 0.818E+02 -.829E+01   0.148E+04 -.826E+02 0.820E+01   -.779E+00 0.662E+00 0.977E-01
   -.148E+04 -.274E+02 -.474E+01   0.148E+04 0.273E+02 0.481E+01   -.483E+00 0.142E+00 -.679E-01
   -.148E+04 0.834E+02 -.101E+02   0.148E+04 -.842E+02 0.100E+02   -.778E+00 0.684E+00 0.762E-01
   0.809E+03 0.989E+01 -.462E+03   -.810E+03 -.104E+02 0.463E+03   0.108E+01 0.574E+00 -.168E+01
   0.831E+03 0.257E+02 -.466E+03   -.831E+03 -.251E+02 0.467E+03   0.102E+01 -.690E+00 -.170E+01
   0.795E+03 -.237E+02 -.481E+03   -.796E+03 0.231E+02 0.483E+03   0.120E+01 0.576E+00 -.164E+01
   0.806E+03 -.375E+01 -.461E+03   -.808E+03 0.425E+01 0.462E+03   0.119E+01 -.544E+00 -.167E+01
   0.207E+03 0.740E+01 -.712E+03   -.207E+03 -.739E+01 0.715E+03   0.751E-01 -.910E-02 -.254E+01
   0.207E+03 -.252E+01 -.706E+03   -.207E+03 0.248E+01 0.708E+03   0.837E-01 0.395E-01 -.260E+01
   0.200E+03 0.702E+00 -.709E+03   -.200E+03 -.687E+00 0.712E+03   0.376E-01 -.157E-01 -.258E+01
   0.206E+03 -.415E+01 -.711E+03   -.206E+03 0.416E+01 0.713E+03   0.235E-01 -.172E-02 -.257E+01
   -.275E+03 -.408E+01 -.701E+03   0.275E+03 0.410E+01 0.704E+03   0.807E-01 -.208E-01 -.260E+01
   -.285E+03 0.382E+01 -.699E+03   0.285E+03 -.386E+01 0.701E+03   0.377E-01 0.368E-01 -.261E+01
   -.274E+03 -.355E+01 -.699E+03   0.274E+03 0.355E+01 0.702E+03   0.646E-01 -.305E-03 -.260E+01
   -.288E+03 0.580E+01 -.700E+03   0.288E+03 -.584E+01 0.702E+03   0.452E-01 0.419E-01 -.261E+01
[...]
   -.573E+03 0.738E+01 0.647E+03   0.573E+03 -.749E+01 -.650E+03   -.174E+00 0.125E+00 0.240E+01
   -.573E+03 -.889E+01 0.647E+03   0.573E+03 0.900E+01 -.649E+03   -.171E+00 -.120E+00 0.241E+01
   -.576E+03 0.815E+01 0.645E+03   0.576E+03 -.826E+01 -.647E+03   -.170E+00 0.122E+00 0.241E+01
   -.936E+03 0.632E+01 0.236E+02   0.938E+03 -.679E+01 -.237E+02   -.184E+01 0.506E+00 0.113E+00
   -.915E+03 0.125E+01 -.147E+02   0.917E+03 -.124E+01 0.147E+02   -.259E+01 -.810E-02 -.299E-01
   -.937E+03 -.469E+01 0.324E+02   0.938E+03 0.517E+01 -.325E+02   -.183E+01 -.522E+00 0.144E+00
   -.939E+03 -.511E-01 -.620E+02   0.941E+03 0.550E-01 0.623E+02   -.206E+01 -.231E-02 -.273E+00
   -.936E+03 0.466E+01 0.324E+02   0.938E+03 -.514E+01 -.325E+02   -.182E+01 0.524E+00 0.143E+00
   -.914E+03 -.127E+01 -.162E+02   0.917E+03 0.126E+01 0.162E+02   -.258E+01 0.116E-01 -.375E-01
   -.937E+03 -.633E+01 0.216E+02   0.938E+03 0.680E+01 -.217E+02   -.183E+01 -.508E+00 0.110E+00
   -.940E+03 0.702E-01 -.518E+02   0.942E+03 -.720E-01 0.520E+02   -.207E+01 0.104E-02 -.211E+00
   0.890E+03 -.219E+03 0.455E+03   -.919E+03 0.256E+03 -.474E+03   0.298E+02 -.374E+02 0.194E+02
   0.795E+03 0.169E+03 0.514E+03   -.807E+03 -.209E+03 -.536E+03   0.125E+02 0.394E+02 0.222E+02
   0.443E+03 -.403E+01 0.212E+03   -.437E+03 0.518E+01 -.207E+03   -.636E+01 -.120E+01 -.559E+01
   -.422E+02 -.184E+01 -.313E+02   0.892E-11 0.142E-12 -.216E-11   0.422E+02 0.185E+01 0.314E+02

 POSITION                                       TOTAL-FORCE (eV/Angst)
      9.30439      1.10739      9.00431        -0.001876      0.000052      0.001940
      9.46199      7.16592      8.82014         0.000839      0.002470      0.000162
      9.29551     14.31116      9.19509         0.002596      0.000064     -0.000339
      9.43790     20.55521      9.01994        -0.001581      0.000135     -0.002469
     15.03351      0.94120      9.04788         0.000238     -0.002010     -0.000782
     15.02048      7.50334      9.02543         0.001154     -0.000474      0.000903
     14.98946     14.07222      9.04784         0.000366      0.002420      0.001065
     15.04417     20.64608      9.06109        -0.000558      0.000177      0.000123
     20.74051      0.94044      9.10748         0.000621     -0.002140     -0.001116
     20.71456      7.51001      9.08280        -0.000195     -0.000030     -0.000089
     20.70976     14.06488      9.08932        -0.001876      0.001366      0.000394
     20.72979     20.62833      9.09293         0.000263      0.000689     -0.001126
      9.50245      4.38578      8.96836         0.002257     -0.001858     -0.001049
      9.30094     10.65926      9.00820        -0.002878     -0.003248     -0.006395
      9.42717     17.51143      9.03412        -0.001357      0.002819     -0.000094
      9.31907     23.77770      9.04996         0.000015      0.001362     -0.001910
     15.04283      4.21110      9.03539         0.000550     -0.002378     -0.001044
     14.98627     10.77780      9.03348         0.001847     -0.000393      0.001757
     15.02574     17.34601      9.05740        -0.000701     -0.000405      0.000071
     15.03583     23.90925      9.05764         0.000055      0.001504      0.001700
     20.73853      4.21452      9.09176        -0.001770      0.000045     -0.001913
     20.71823     10.79959      9.07615        -0.000788     -0.000225      0.002375
     20.72945     17.33290      9.08396        -0.000246     -0.000617      0.001346
     20.74658     23.92310      9.09816         0.000274      0.000511     -0.000396
     12.20207      5.84350      8.97646        -0.000529     -0.001240     -0.002657
     12.08900     12.43005      9.03125        -0.001425      0.000197     -0.002215
     12.17339     19.01205      9.04892        -0.000416      0.001288      0.000966
     12.15606     25.54769      9.03046         0.001927      0.002218      0.002999
     17.90067      5.85836      9.06320         0.000624     -0.001525     -0.000655
     17.83911     12.42728      9.06041         0.000595      0.000020      0.002256
     17.90213     18.98347      9.07397         0.000810     -0.000034     -0.001903
     17.87899     25.55687      9.07909        -0.000723     -0.000423      0.001292
     23.62485      5.63743      9.10632         0.000005     -0.002249     -0.000133
     23.57509     12.51170      9.10621         0.000284     -0.000384     -0.000566
     23.62638     18.74906      9.09901        -0.000127      0.003830      0.000578
     23.60203     25.64557      9.12696        -0.001192     -0.000912     -0.000046
     12.21285      2.58407      9.00875        -0.001620     -0.001322      0.000669
     12.12684      9.11948      8.98008        -0.002142     -0.001976     -0.002033
     12.17559     15.73107      9.05597         0.002343      0.000630      0.002221
     12.20830     22.27071      9.04287        -0.000133      0.001505      0.001489
     17.87854      2.57411      9.07287        -0.002458     -0.000041      0.000763
     17.88057      9.15576      9.05738         0.000544      0.001479      0.002134
     17.85146     15.70085      9.06745         0.000449     -0.000186     -0.000297
     17.91056     22.27973      9.07878        -0.001023      0.000353     -0.001039
     23.59785      2.49593      9.12600        -0.000547     -0.002183     -0.001057
     23.61504      9.38496      9.09382         0.000340     -0.001511     -0.000525
     23.57974     15.61753      9.10834         0.000972      0.002179      0.000483
     23.63611     22.50241      9.11021         0.000467      0.001992      0.001523
      8.38240      2.70806     10.62091        -0.000160     -0.002213     -0.002277
      8.24767      8.92934     10.35301        -0.000738     -0.002199      0.002618
      8.39254     15.91943     10.79864        -0.001063      0.000702      0.003064
      8.36669     22.20948     10.68839         0.001440     -0.000740     -0.001156
     14.07277      2.58020     10.73034        -0.000504      0.000800     -0.000054
     14.00361      9.13091     10.69986         0.001456      0.000742      0.002778
     14.06157     15.71174     10.75136         0.000817     -0.000208      0.000014
     14.08283     22.28025     10.75438        -0.000246      0.000003     -0.000699
     19.75950      2.58352     10.77582        -0.000992     -0.000415      0.000025
     19.77067      9.15285     10.76610        -0.000594      0.000962      0.000211
     19.73962     15.70278     10.76411         0.000684      0.000094     -0.001229
     19.80188     22.27040     10.78512         0.000548     -0.000189     -0.000944
[...]
     22.65652      4.15872      7.35932         0.000339      0.000385      0.000696
     22.63486     10.85063      7.34079        -0.000450      0.000923     -0.000471
     22.64270     17.28378      7.34665         0.000097     -0.000683     -0.001417
     22.66176     23.97907      7.36396        -0.000241     -0.000668      0.000281
     25.57121     23.98588      9.02245        -0.002267     -0.001806     -0.001753
     25.37739     20.62431      9.15016        -0.000084     -0.000499      0.000221
     25.55783     17.26575      8.97890         0.000475     -0.000725     -0.000073
     25.52692     14.06201      9.33029         0.001595      0.001191     -0.000350
     25.55066     10.86275      8.97508         0.001538     -0.000016     -0.000438
     25.36686      7.51241      9.15075         0.001508      0.000429      0.000191
     25.56304      4.15762      9.02745         0.000740      0.000081      0.000343
     25.55125      0.94489      9.30748         0.000084     -0.000720      0.001340
      7.81935     10.47621      7.22103         0.003743      0.000590     -0.001159
      8.36021      8.22117      7.25932         0.001359     -0.001820     -0.004977
      8.46125      9.44821      7.57450         0.002513      0.004492      0.005301
    total drift:                               -0.054717      0.012240      0.026871

  FREE ENERGIE OF THE ION-ELECTRON SYSTEM (eV)
  free  energy   TOTEN  =     -1080.11130616 eV

  energy  without entropy=    -1080.10890884  energy(sigma->0) =    -1080.11010750

 d Force = 0.7799384E-05[ 0.238E-05, 0.132E-04]  d Energy = 0.6677396E-05 0.112E-05
 d Force = 0.3065461E-01[ 0.307E-01, 0.306E-01]  d Ewald  = 0.3065432E-01 0.283E-06

 Conjugate gradient step on ions:
 trial-energy change:   -0.000007  1 .order   -0.000008   -0.000013   -0.000002
  (g-gl).g = 0.565E-04      g.g   = 0.454E-04  gl.gl    = 0.468E-04
 g(Force)  = 0.454E-04   g(Stress)= 0.000E+00 ortho     =-0.240E-05
 gamma     =   1.20512
 trial     =   0.31129
 opt step  =   0.37974  (harmonic =   0.37974) maximal distance =0.00035214
 next E    = -1080.111308   (d E  =  -0.00001)

 reached required accuracy - stopping structural energy minimisation

 total charge

[...]

 magnetization (x)

# of ion       s       p       d       tot
    1        0.001   0.001   0.018   0.021
    2        0.000   0.000   0.003   0.004
    3        0.001   0.001   0.056   0.058
    4        0.004   0.006   0.213   0.223
    5       -0.000  -0.000  -0.000  -0.000
    6        0.000  -0.000   0.000   0.000
    7        0.000   0.000   0.002   0.002
    8       -0.000  -0.000   0.001   0.000
    9       -0.000  -0.000  -0.001  -0.001
   10       -0.000  -0.000  -0.001  -0.002
   11       -0.000  -0.000   0.000   0.000
   12       -0.000  -0.000  -0.001  -0.002
   13        0.000   0.000   0.002   0.003
   14        0.001   0.002   0.023   0.025
   15        0.003   0.006   0.167   0.175
   16        0.001   0.001   0.075   0.078
   17        0.000   0.000   0.001   0.001
   18       -0.000  -0.000  -0.000  -0.000
   19       -0.000  -0.000  -0.000  -0.001
   20       -0.000   0.000   0.002   0.002
   21       -0.000  -0.000  -0.002  -0.002
   22        0.000  -0.000  -0.002  -0.002
   23        0.000  -0.000  -0.002  -0.002
   24       -0.000  -0.000  -0.002  -0.002
   25        0.000   0.000  -0.000  -0.000
   26        0.000   0.000  -0.001  -0.001
   27        0.000   0.000   0.004   0.004
   28        0.000   0.000  -0.002  -0.001
   29        0.000   0.000   0.001   0.001
   30        0.000   0.000   0.001   0.001
   31        0.000   0.000   0.002   0.002
   32        0.000   0.000   0.001   0.001
   33        0.001   0.003   0.086   0.090
   34        0.000   0.004   0.116   0.120
   35        0.001   0.003   0.098   0.102
   36        0.000   0.004   0.110   0.114
   37        0.000   0.000   0.009   0.009
   38        0.000   0.000   0.006   0.006
   39        0.000   0.000   0.009   0.010
   40        0.000   0.000   0.004   0.005
   41       -0.000   0.000   0.000   0.000
   42        0.000   0.000   0.000   0.000
   43        0.000   0.000   0.001   0.001
   44        0.000   0.000   0.000   0.000
   45        0.000   0.004   0.110   0.113
   46        0.001   0.003   0.098   0.102
   47        0.000   0.004   0.117   0.121
   48        0.001   0.003   0.087   0.090
   49        0.000  -0.001   0.000  -0.000
   50        0.000   0.001   0.000   0.001
   51       -0.000  -0.010   0.001  -0.010
   52       -0.000  -0.012   0.001  -0.011
   53        0.000   0.000   0.000   0.000
   54       -0.000   0.000   0.000   0.000
   55       -0.000   0.000  -0.000   0.000
   56       -0.000   0.000  -0.000   0.000
   57        0.000  -0.000   0.000   0.000
   58       -0.000  -0.000  -0.000  -0.000
   59        0.000  -0.000   0.000   0.000
   60       -0.000  -0.000  -0.000  -0.000
[...]
  136       -0.000   0.001   0.001   0.001
  137        0.000   0.002   0.001   0.003
  138        0.000   0.002   0.001   0.002
  139       -0.000   0.001   0.001   0.001
  140       -0.000  -0.014   0.001  -0.013
  141       -0.001  -0.018   0.001  -0.017
  142       -0.000  -0.013   0.002  -0.012
  143       -0.000  -0.017   0.002  -0.016
  144       -0.000  -0.013   0.002  -0.012
  145       -0.001  -0.018   0.001  -0.017
  146       -0.000  -0.014   0.001  -0.013
  147       -0.000  -0.017   0.002  -0.016
  148       -0.000  -0.000   0.000  -0.000
  149       -0.000  -0.000   0.000  -0.000
  150       -0.000  -0.000   0.000  -0.000
tot          0.015  -0.039   1.444   1.420